DATASET = "thpack1";
INSTANCE = "028";

WIDTH = 233;
HEIGHT = 220;
LENGTH = 587;

NO_OF_SHAPES = 3;
size = [|
  62,59,52 |
  54,52,50 |
  102,69,65 |
|];

verticality = [|
  1,1,1 |
  1,1,1 |
  1,1,1 |
|];

box_count = [
  32,
  39,
  40,
];
